127
1000000
168966
242897
59235
179161
80787
74721
183196
14124
37945
37890
157218
19232
103350
38501
10068
49485
211160
210150
247999
165717
144905
156878
176236
211757
138255
213324
41310
144614
57952
2286
125951
38699
4005
16930
103572
16816
22199
98302
37359
192969
81246
234703
24
24532
13449
230963
129459
143338
48876
13569
150252
73765
150507
199585
96017
208246
111912
154122
248374
34543
147916
25895
54079
34984
197651
167982
41122
200527
163752
89243
22972
26119
52882
242880
23095
209553
68130
37210
68923
150247
142394
103717
141282
207099
244878
2458
172213
160385
153753
152427
249522
17629
214965
126097
233452
227625
241117
48434
2122
82609
89101
231931
213960
236243
221248
246184
116083
141134
144130
8999
124548
138631
120331
65366
209927
152407
99162
104742
47604
60614
23341
80629
204556
39822
68316
36595
241453
